481 5
10 10 10 10 10 

0 0 0 0 0 0 5 2 44 86 128 140 
0 0 0 0 0 0 2 3 4 
3 1 1 1 1 0 1 5 
2 6 3 3 2 0 1 5 
10 2 3 2 1 0 2 7 6 
3 2 1 3 4 0 4 16 11 10 8 
7 2 3 2 1 0 4 16 11 10 9 
4 3 2 1 5 0 1 9 
5 1 2 2 2 0 3 14 13 12 
10 3 4 5 3 0 2 13 12 
7 3 1 2 1 0 1 12 
4 2 3 1 5 0 2 19 15 
4 4 2 4 3 0 2 19 15 
8 3 1 2 2 0 3 19 15 183 
10 2 2 2 3 0 1 17 
2 3 2 2 5 0 2 20 19 
1 2 2 1 1 0 1 18 
9 2 2 3 4 0 2 21 20 
10 2 4 3 2 0 2 24 21 
9 3 4 3 2 0 3 25 24 23 
6 2 3 4 3 0 2 23 22 
6 1 6 3 1 0 3 29 27 25 
1 4 1 3 2 0 3 29 28 26 
1 2 3 4 3 0 2 27 26 
5 2 2 3 4 0 1 26 
7 2 4 3 5 0 2 32 30 
2 2 3 1 2 0 1 28 
4 3 3 2 2 0 2 34 31 
9 4 2 5 2 0 2 33 32 
6 3 3 3 1 0 1 31 
4 2 2 1 5 0 2 35 33 
10 3 2 2 2 0 2 36 34 
1 1 1 1 2 0 2 37 36 
8 2 2 2 2 0 2 37 35 
3 2 5 1 2 0 2 40 38 
5 4 1 2 2 0 2 40 38 
9 2 2 1 1 0 3 42 40 39 
6 2 4 2 3 0 2 42 39 
2 4 1 6 2 0 1 41 
1 3 2 1 1 0 1 41 
1 3 2 2 3 0 1 43 
2 1 4 6 3 0 1 43 
0 0 0 0 0 0 1 470 
0 0 0 0 0 0 2 45 47 
9 1 1 1 0 1 1 46 
5 3 4 3 0 4 2 49 48 
7 4 3 1 0 2 2 50 48 
8 4 6 3 0 4 4 60 53 52 51 
5 4 2 3 0 2 3 53 52 50 
3 2 1 3 0 3 1 51 
10 3 2 1 0 2 3 56 55 54 
3 2 6 3 0 1 2 57 55 
10 4 4 3 0 4 2 57 55 
3 2 1 2 0 2 2 61 57 
2 2 1 2 0 2 2 61 58 
1 2 1 4 0 2 2 61 58 
4 4 3 3 0 2 1 58 
2 1 2 2 0 1 1 59 
2 3 4 2 0 1 3 66 63 62 
3 1 1 3 0 3 1 61 
5 3 2 1 0 5 2 65 64 
8 2 2 2 0 1 3 69 67 65 
9 4 5 4 0 2 1 64 
9 3 1 5 0 2 3 70 69 67 
3 2 2 2 0 4 3 75 71 70 
9 2 4 2 0 4 3 75 74 71 
4 2 1 6 0 3 1 68 
5 2 1 1 0 3 2 75 71 
4 1 3 5 0 4 4 76 74 73 248 
1 1 1 1 0 3 2 76 73 
6 2 2 1 0 3 1 72 
3 4 2 2 0 3 2 77 73 
4 4 3 3 0 2 2 79 78 
2 4 3 3 0 3 2 79 78 
2 2 2 1 0 2 1 76 
8 1 1 1 0 3 1 77 
9 3 2 4 0 1 3 84 81 80 
5 3 4 3 0 2 2 81 80 
7 1 4 1 0 4 2 84 81 
2 4 5 2 0 1 1 82 
4 2 2 4 0 3 1 83 
8 1 2 3 0 2 1 83 
4 2 3 2 0 3 1 85 
1 3 1 2 0 1 1 85 
0 0 0 0 0 0 1 470 
0 0 0 0 0 0 2 87 94 
6 0 1 1 1 1 2 126 88 
3 0 1 3 3 2 2 92 89 
5 0 2 3 1 1 4 112 99 96 90 
10 0 4 4 1 3 1 91 
2 0 2 2 1 1 2 97 93 
10 0 5 4 2 3 4 116 112 98 97 
6 0 3 1 3 3 2 116 95 
7 0 1 2 2 3 2 115 96 
1 0 3 4 4 2 3 115 110 98 
1 0 2 2 3 2 1 97 
4 0 2 2 3 3 4 125 110 103 100 
4 0 4 2 1 1 3 125 103 100 
6 0 4 4 1 3 3 115 110 101 
2 0 3 2 1 2 2 124 101 
10 0 1 2 3 2 2 123 102 
5 0 3 2 3 6 4 122 114 104 450 
9 0 2 3 1 1 5 124 121 120 114 106 
10 0 2 2 5 3 2 121 105 
6 0 4 3 2 4 2 120 106 
6 0 3 3 4 5 1 107 
7 0 2 3 1 2 2 119 108 
10 0 3 3 4 3 1 109 
6 0 1 2 2 3 2 118 111 
10 0 3 4 2 1 1 111 
4 0 1 1 4 4 1 113 
3 0 2 2 1 3 1 115 
4 0 3 4 3 1 1 117 
2 0 2 1 3 3 1 117 
9 0 2 5 2 2 1 118 
9 0 2 3 3 2 1 118 
8 0 3 2 2 3 1 127 
5 0 3 2 2 1 1 127 
6 0 2 2 3 2 1 127 
5 0 1 1 3 4 1 127 
5 0 3 3 2 2 1 127 
2 0 5 3 2 1 1 127 
7 0 2 1 4 3 1 127 
5 0 2 1 3 1 1 127 
8 0 2 2 5 4 1 127 
10 0 4 4 4 4 1 127 
0 0 0 0 0 0 1 470 
0 0 0 0 0 0 4 129 132 133 135 
6 0 0 0 0 1 1 130 
1 0 0 0 0 1 2 138 131 
10 0 0 0 0 2 2 137 134 
4 0 0 0 0 6 2 137 136 
7 0 0 0 0 3 2 134 404 
4 0 0 0 0 2 1 136 
1 0 0 0 0 4 1 137 
4 0 0 0 0 3 1 139 
1 0 0 0 0 1 1 139 
7 0 0 0 0 2 1 139 
0 0 0 0 0 0 5 182 214 246 258 290 
0 0 0 0 0 0 2 141 145 
2 1 0 1 1 1 1 142 
8 1 0 1 2 2 2 144 143 
7 2 0 1 5 3 3 151 149 146 
4 3 0 1 5 1 3 161 149 147 
4 2 0 1 2 3 2 149 147 
3 3 0 3 3 1 1 147 
8 2 0 2 4 1 3 154 153 148 
1 2 0 2 4 1 2 163 150 
10 3 0 3 4 4 2 163 153 
7 4 0 3 3 2 1 152 
8 2 0 3 2 2 1 152 
2 3 0 1 1 4 3 165 162 155 
10 1 0 3 4 2 3 165 162 155 
8 4 0 2 4 4 5 170 165 162 158 157 
10 5 0 2 2 3 3 170 158 156 
1 1 0 3 2 3 1 157 
7 2 0 1 1 1 3 180 168 159 
5 5 0 3 3 3 2 168 159 
6 3 0 3 3 2 2 175 160 
6 2 0 1 4 6 3 179 173 164 
7 2 0 4 1 2 2 169 165 
3 3 0 4 1 3 2 180 166 
3 1 0 2 2 1 2 172 165 
6 2 0 1 1 3 1 166 
3 3 0 3 3 7 2 178 168 
3 3 0 8 2 4 1 167 
8 2 0 1 3 3 2 177 169 
8 5 0 2 2 1 2 173 171 
2 2 0 3 1 1 2 178 172 
9 1 0 5 5 1 2 178 172 
3 3 0 1 3 3 2 177 174 
10 5 0 3 4 1 1 174 
3 2 0 2 3 3 1 174 
9 1 0 1 1 3 1 176 
5 1 0 2 2 4 1 177 
3 1 0 8 1 2 1 181 
1 2 0 3 2 2 1 181 
4 4 0 3 1 1 1 181 
8 3 0 3 2 4 1 181 
9 3 0 1 1 2 1 181 
0 0 0 0 0 0 1 470 
0 0 0 0 0 0 3 183 197 212 
10 0 0 1 1 1 2 211 184 
5 0 0 4 2 1 3 209 208 185 
8 0 0 3 4 1 2 207 186 
10 0 0 4 5 4 1 187 
9 0 0 4 3 4 3 206 205 188 
7 0 0 3 3 4 2 204 189 
6 0 0 3 1 5 1 190 
2 0 0 2 5 3 2 203 191 
2 0 0 3 1 3 1 192 
6 0 0 3 2 2 3 202 201 193 
4 0 0 4 1 2 2 200 194 
8 0 0 2 3 1 2 199 195 
8 0 0 1 1 1 1 196 
7 0 0 1 2 1 1 198 
2 0 0 4 1 2 1 210 
1 0 0 1 2 2 1 213 
4 0 0 1 1 2 1 213 
1 0 0 2 3 2 1 213 
7 0 0 5 7 3 1 213 
3 0 0 2 2 2 1 213 
1 0 0 1 2 4 1 213 
1 0 0 4 2 4 1 213 
2 0 0 2 2 4 1 213 
4 0 0 2 4 1 1 213 
1 0 0 2 3 2 1 213 
4 0 0 2 3 4 1 213 
3 0 0 2 2 4 1 213 
3 0 0 2 2 1 1 213 
8 0 0 2 3 2 1 213 
1 0 0 3 2 3 1 213 
0 0 0 0 0 0 1 470 
0 0 0 0 0 0 3 215 216 218 
5 1 1 0 1 0 2 223 217 
6 2 3 0 2 0 2 223 217 
8 1 4 0 2 0 2 222 219 
10 2 1 0 4 0 3 227 223 222 
2 2 3 0 4 0 2 224 220 
2 3 2 0 1 0 1 221 
6 2 2 0 3 0 3 230 227 225 
4 2 2 0 3 0 1 224 
9 4 3 0 1 0 1 224 
6 2 3 0 1 0 2 230 225 
3 6 2 0 3 0 1 226 
2 3 3 0 2 0 2 231 228 
2 3 3 0 4 0 2 231 228 
5 2 2 0 3 0 2 232 229 
3 3 2 0 2 0 2 237 233 
5 4 1 0 1 0 1 231 
10 3 4 0 4 0 1 233 
8 2 4 0 3 0 1 233 
2 1 1 0 3 0 1 234 
2 2 2 0 4 0 1 235 
1 3 2 0 3 0 2 239 236 
2 3 3 0 2 0 5 244 243 242 240 238 
2 4 2 0 2 0 3 242 240 238 
4 2 4 0 3 0 1 241 
3 2 5 0 2 0 1 240 
8 4 2 0 3 0 1 245 
10 1 4 0 3 0 1 245 
7 2 2 0 2 0 1 245 
1 1 1 0 1 0 1 245 
3 3 2 0 3 0 1 245 
0 0 0 0 0 0 1 470 
0 0 0 0 0 0 2 247 249 
6 0 1 0 0 0 1 248 
3 0 1 0 0 0 2 252 250 
8 0 3 0 0 0 3 253 252 251 
4 0 3 0 0 0 2 256 251 
8 0 3 0 0 0 1 254 
8 0 2 0 0 0 1 255 
4 0 5 0 0 0 1 254 
6 0 3 0 0 0 1 257 
5 0 2 0 0 0 1 257 
9 0 2 0 0 0 1 257 
0 0 0 0 0 0 5 322 344 366 378 400 
0 0 0 0 0 0 3 259 260 264 
3 0 1 0 1 1 2 266 261 
7 0 1 0 1 3 2 266 261 
10 0 1 0 2 3 2 267 262 
3 0 2 0 3 5 2 268 263 
10 0 4 0 2 1 1 265 
7 0 3 0 3 4 1 266 
8 0 2 0 2 5 3 274 271 269 
3 0 1 0 2 1 1 268 
9 0 1 0 2 2 1 268 
8 0 2 0 4 1 2 274 269 
2 0 4 0 6 2 1 270 
7 0 3 0 1 1 2 275 272 
4 0 2 0 3 2 2 275 272 
9 0 4 0 4 5 2 276 273 
6 0 2 0 4 2 2 281 277 
5 0 3 0 3 1 1 275 
8 0 3 0 1 4 1 277 
9 0 2 0 3 1 1 277 
6 0 3 0 3 3 1 278 
6 0 2 0 2 2 1 279 
6 0 2 0 1 1 2 283 280 
3 0 1 0 3 4 5 288 287 286 284 282 
7 0 5 0 2 4 3 286 284 282 
4 0 4 0 3 1 1 285 
7 0 1 0 1 2 1 284 
4 0 2 0 3 2 1 289 
10 0 2 0 2 4 1 289 
7 0 5 0 2 3 1 289 
2 0 3 0 3 3 1 289 
2 0 4 0 3 2 1 289 
0 0 0 0 0 0 1 470 
0 0 0 0 0 0 3 291 292 320 
10 1 0 1 1 0 2 319 293 
7 4 0 3 3 0 3 319 301 294 
7 4 0 2 2 0 2 301 294 
6 1 0 5 1 0 1 295 
8 1 0 2 1 0 3 318 317 296 
10 3 0 1 3 0 1 297 
6 4 0 3 4 0 2 316 298 
7 2 0 2 4 0 2 315 299 
2 5 0 2 1 0 2 314 300 
6 3 0 3 1 0 1 302 
5 1 0 2 5 0 3 313 305 304 
10 2 0 2 4 0 2 313 303 
8 2 0 3 3 0 1 304 
1 1 0 4 2 0 3 311 308 306 
8 2 0 2 3 0 3 311 308 307 
7 1 0 2 2 0 3 312 309 307 
10 4 0 3 1 0 1 310 
2 3 0 4 1 0 1 309 
7 1 0 3 3 0 1 321 
5 1 0 4 4 0 1 321 
5 2 0 4 4 0 1 321 
2 3 0 2 2 0 1 321 
9 2 0 4 4 0 1 321 
10 5 0 1 3 0 1 321 
4 3 0 2 2 0 1 321 
10 1 0 1 1 0 1 321 
8 4 0 1 2 0 1 321 
4 3 0 3 3 0 1 321 
3 3 0 3 3 0 1 321 
4 3 0 1 2 0 1 321 
0 0 0 0 0 0 1 470 
0 0 0 0 0 0 1 323 
1 0 1 0 1 0 2 326 324 
7 0 5 0 2 0 1 325 
2 0 3 0 2 0 1 327 
5 0 2 0 2 0 1 327 
2 0 1 0 1 0 2 330 328 
6 0 3 0 3 0 4 342 341 335 329 
9 0 2 0 3 0 4 340 339 334 331 
4 0 1 0 2 0 5 340 339 338 337 336 
9 0 4 0 3 0 2 337 332 
8 0 2 0 1 0 2 338 333 
8 0 3 0 4 0 1 336 
3 0 3 0 3 0 1 336 
1 0 3 0 1 0 1 337 
7 0 3 0 3 0 1 343 
6 0 1 0 3 0 1 343 
9 0 2 0 4 0 1 343 
7 0 6 0 5 0 1 343 
7 0 2 0 2 0 1 343 
5 0 2 0 4 0 1 343 
4 0 1 0 1 0 1 343 
0 0 0 0 0 0 1 470 
0 0 0 0 0 0 4 345 346 349 352 
7 1 1 0 0 0 3 354 353 347 
9 4 1 0 0 0 5 359 357 354 353 350 
5 2 3 0 0 0 1 348 
5 2 2 0 0 0 3 359 357 350 
7 2 2 0 0 0 2 356 353 
10 5 2 0 0 0 1 351 
9 2 3 0 0 0 2 356 355 
10 1 2 0 0 0 2 357 355 
5 2 4 0 0 0 1 355 
3 1 4 0 0 0 1 356 
10 6 1 0 0 0 1 358 
10 4 5 0 0 0 1 358 
2 3 3 0 0 0 1 358 
3 5 3 0 0 0 3 364 363 360 
8 1 3 0 0 0 2 363 360 
6 1 1 0 0 0 1 361 
3 2 3 0 0 0 1 362 
1 3 1 0 0 0 1 365 
6 1 2 0 0 0 1 365 
3 2 4 0 0 0 1 365 
0 0 0 0 0 0 1 470 
0 0 0 0 0 0 3 367 369 370 
7 1 0 0 0 0 1 368 
5 2 0 0 0 0 3 373 372 371 
2 2 0 0 0 0 2 373 371 
3 3 0 0 0 0 1 371 
1 3 0 0 0 0 2 376 375 
4 2 0 0 0 0 1 374 
9 2 0 0 0 0 1 375 
9 5 0 0 0 0 1 375 
2 1 0 0 0 0 1 377 
6 4 0 0 0 0 1 377 
0 0 0 0 0 0 4 422 434 446 458 
0 0 0 0 0 0 2 379 381 
7 0 1 1 0 0 2 384 380 
4 0 3 2 0 0 1 382 
10 0 2 1 0 0 1 382 
4 0 2 2 0 0 4 394 392 388 383 
4 0 2 2 0 0 3 393 387 385 
1 0 4 1 0 0 3 392 388 386 
4 0 2 1 0 0 2 397 386 
2 0 1 2 0 0 2 396 389 
7 0 1 3 0 0 2 396 390 
3 0 2 3 0 0 3 398 396 395 
2 0 1 4 0 0 1 390 
2 0 3 4 0 0 1 391 
3 0 5 3 0 0 1 395 
7 0 4 3 0 0 1 397 
10 0 1 4 0 0 1 397 
7 0 4 3 0 0 1 398 
10 0 2 3 0 0 1 399 
2 0 2 2 0 0 1 399 
5 0 3 3 0 0 1 399 
10 0 5 3 0 0 1 399 
0 0 0 0 0 0 1 470 
0 0 0 0 0 0 1 401 
4 1 0 0 0 1 2 406 402 
8 3 0 0 0 1 1 403 
8 5 0 0 0 3 2 412 404 
3 3 0 0 0 4 2 420 405 
1 2 0 0 0 3 4 418 417 411 407 
9 3 0 0 0 1 5 418 417 415 411 408 
6 2 0 0 0 3 3 419 415 408 
1 1 0 0 0 2 2 416 409 
7 2 0 0 0 2 2 414 410 
7 5 0 0 0 2 1 413 
6 2 0 0 0 1 1 413 
6 2 0 0 0 1 1 415 
3 3 0 0 0 5 1 421 
9 3 0 0 0 2 1 421 
2 2 0 0 0 2 1 421 
7 1 0 0 0 5 1 421 
3 1 0 0 0 2 1 421 
9 3 0 0 0 2 1 421 
4 2 0 0 0 7 1 421 
6 4 0 0 0 1 1 421 
0 0 0 0 0 0 1 470 
0 0 0 0 0 0 2 423 425 
6 0 0 1 0 0 2 426 424 
5 0 0 3 0 0 2 428 427 
9 0 0 3 0 0 2 429 427 
9 0 0 4 0 0 2 432 428 
9 0 0 4 0 0 2 431 430 
8 0 0 1 0 0 1 429 
9 0 0 3 0 0 1 431 
7 0 0 1 0 0 1 432 
8 0 0 4 0 0 1 433 
4 0 0 1 0 0 1 433 
0 0 0 0 0 0 1 470 
0 0 0 0 0 0 2 435 436 
6 0 0 0 1 0 2 439 437 
4 0 0 0 4 0 2 439 438 
4 0 0 0 2 0 2 440 438 
1 0 0 0 1 0 2 444 441 
6 0 0 0 3 0 1 440 
6 0 0 0 4 0 3 444 443 442 
3 0 0 0 3 0 2 443 442 
3 0 0 0 1 0 1 445 
2 0 0 0 4 0 1 445 
10 0 0 0 2 0 1 445 
0 0 0 0 0 0 1 470 
0 0 0 0 0 0 3 447 455 456 
10 0 0 1 0 0 2 451 448 
8 0 0 1 0 0 2 454 449 
4 0 0 4 0 0 1 450 
9 0 0 4 0 0 1 452 
4 0 0 2 0 0 1 453 
1 0 0 4 0 0 1 457 
9 0 0 2 0 0 1 457 
10 0 0 1 0 0 1 457 
1 0 0 5 0 0 1 457 
5 0 0 1 0 0 1 457 
0 0 0 0 0 0 1 470 
0 0 0 0 0 0 2 459 461 
5 0 0 1 0 0 2 468 460 
3 0 0 3 0 0 3 467 464 462 
9 0 0 3 0 0 2 466 462 
3 0 0 1 0 0 1 463 
1 0 0 2 0 0 1 465 
8 0 0 2 0 0 1 466 
7 0 0 2 0 0 1 469 
10 0 0 2 0 0 1 469 
5 0 0 2 0 0 1 469 
10 0 0 7 0 0 1 469 
0 0 0 0 0 0 1 470 
0 0 0 0 0 0 3 471 473 474 
6 0 1 0 0 0 2 478 472 
3 0 1 0 0 0 2 476 475 
10 0 2 0 0 0 2 480 476 
7 0 3 0 0 0 2 477 475 
6 0 2 0 0 0 2 480 479 
6 0 1 0 0 0 1 477 
6 0 3 0 0 0 1 479 
4 0 2 0 0 0 1 479 
6 0 5 0 0 0 1 481 
10 0 5 0 0 0 1 481 
0 0 0 0 0 0 0 
